0 4378
2401 4271
4802 4166
7203 4090
9604 4022
12005 3947
14406 3887
16807 3845
19208 3817
21609 3772
24010 3739
26411 3693
28812 3678
31213 3658
33614 3639
36015 3635
38416 3618
40817 3607
43218 3606
